1,2,3,4,5,6,7,8,9,10,11,12,13,14,15,16,17,18,19,20,21,22,23,24,25,26,27,28,29,30,31,32,33,34,35,36,37,38,39,40,41,42,43,44,45,46,47,48,49,50,51,52,53,54
1,2,3,7,8,9
20,26,31,32,38
17,23,28,29,35
30,36,41,42,48
43,44,45,49,50,51
4,5,6,10,11,12
40,41,42,46,47,48,52,53,54
13,14,19,20,25,26,31,32,37,38
6,12,18,24
2,8,14,20
32,33,34,35,36,38,39,40,41,42
7,8,9,10,11,13,14,15,16,17
43,44
47,48
52,53
7,13,19,25
15,16,17,21,22,23,27,28,29
27,28,29,33,34,35
31,32
9,10
21,27,33,39
15,16
22,28,34,40
34,35